row=8;
Board=[|2,-1,4,-1,1,7,-1,5,-1,-1|-1,-1,-1,8,6,-1,-1,4,3,1|4,-1,5,0,-1,3,6,-1,-1,-1|-1,-1,2,7,5,-1,9,-1,0,-1|-1,5,8,3,6,7,0,-1,4,9|-1,3,9,5,4,2,8,6,-1,-1|9,-1,-1,3,-1,1,0,-1,-1,8|1,-1,-1,2,9,7,-1,-1,-1,-1|];
bottom=[39,30,46,28,46,36,41,33,27,34]